************************************************************************
file with basedata            : mm45_.bas
initial value random generator: 707840294
************************************************************************
projects                      :  1
jobs (incl. supersource/sink ):  12
horizon                       :  76
RESOURCES
  - renewable                 :  2   R
  - nonrenewable              :  2   N
  - doubly constrained        :  0   D
************************************************************************
PROJECT INFORMATION:
pronr.  #jobs rel.date duedate tardcost  MPM-Time
    1     10      0       16        4       16
************************************************************************
PRECEDENCE RELATIONS:
jobnr.    #modes  #successors   successors
   0        1          3           1   2   3
   1        3          2           5   8
   2        3          3           6   7   9
   3        3          2           4   7
   4        3          1          10
   5        3          1           6
   6        3          1          10
   7        3          2           8  10
   8        3          1          11
   9        3          1          11
  10        3          1          11
  11        1          0        
************************************************************************
REQUESTS/DURATIONS:
jobnr. mode duration  R 1  R 2  R 3  R 4  E(W 1)  E(W 2)
------------------------------------------------------------------------
  0      1     0       0    0    0    0     0       0
  1      1     3       4    6    7   10    30      51
  2      1     6       5    7    5    9    72      84
  3      1     4       7    6    9    5    52      56
  4      1     1       8   10    9    5    18      14
  5      1     6       5    4    6    7    54      78
  6      1     1       5    5    9    5    10      14
  7      1     2       7    3    9    7    20      32
  8      1     2       7    8    6    4    30      20
  9      1     1       4    5    8   10     9      18
 10      1     6       5    8   10    7    78      102
 11      1     0       0    0    0    0     0       0
************************************************************************
RESOURCEAVAILABILITIES:
  R 1  R 2
   26   112
************************************************************************
RESOURCE LIMITS:
jobnr.  l(R 1)  u(R 1)  l(R 2)  u(R 2)
------------------------------------------------------------------------
  0        0       0       0       0
  1        5      10       9      17
  2        7      12       8      14
  3        7      13       8      14
  4        9      18       8      14
  5        5       9       7      13
  6        6      10       8      14
  7        6      10       9      16
  8        8      15       5      10
  9        5       9       9      18
 10        7      13       9      17
 11        0       0       0       0
************************************************************************
SCENARIOS:
------------------------------------------------------------------------
RESOURCE k = 1
s = 1: (0, 27, 47, 75, 26, 63, 11, 26, 20, 12, 52, 0)
s = 2: (0, 38, 70, 53, 25, 33, 13, 21, 41, 8, 99, 0)
s = 3: (0, 34, 72, 52, 21, 51, 11, 27, 37, 10, 46, 0)
s = 4: (0, 34, 47, 39, 32, 65, 11, 12, 20, 13, 79, 0)
s = 5: (0, 39, 47, 65, 18, 65, 14, 15, 34, 12, 121, 0)
s = 6: (0, 31, 63, 32, 16, 41, 6, 16, 24, 6, 102, 0)
s = 7: (0, 26, 89, 36, 21, 59, 8, 12, 35, 8, 74, 0)
s = 8: (0, 40, 57, 52, 12, 97, 7, 24, 48, 8, 58, 0)
s = 9: (0, 32, 51, 52, 16, 71, 9, 31, 40, 9, 110, 0)
s = 10: (0, 21, 82, 63, 16, 43, 12, 20, 20, 12, 68, 0)
s = 11: (0, 33, 80, 52, 20, 30, 7, 23, 34, 10, 61, 0)
s = 12: (0, 27, 71, 48, 23, 60, 14, 23, 35, 7, 85, 0)
s = 13: (0, 32, 108, 66, 16, 38, 16, 20, 18, 8, 106, 0)
s = 14: (0, 28, 46, 67, 18, 46, 8, 13, 34, 9, 62, 0)
s = 15: (0, 31, 52, 73, 20, 53, 12, 14, 32, 11, 60, 0)
s = 16: (0, 26, 39, 53, 16, 69, 12, 27, 44, 11, 110, 0)
s = 17: (0, 24, 115, 69, 14, 52, 9, 23, 32, 13, 76, 0)
s = 18: (0, 33, 139, 32, 24, 43, 11, 22, 35, 10, 79, 0)
s = 19: (0, 44, 66, 43, 27, 65, 14, 15, 19, 9, 83, 0)
s = 20: (0, 27, 62, 32, 14, 66, 11, 25, 27, 6, 77, 0)
s = 21: (0, 22, 84, 37, 16, 43, 7, 13, 30, 12, 96, 0)
s = 22: (0, 33, 48, 43, 12, 73, 12, 18, 17, 9, 59, 0)
s = 23: (0, 26, 71, 65, 15, 34, 7, 26, 24, 12, 64, 0)
s = 24: (0, 31, 109, 54, 19, 47, 13, 19, 48, 8, 76, 0)
s = 25: (0, 46, 69, 48, 13, 41, 11, 22, 59, 11, 48, 0)
s = 26: (0, 16, 78, 56, 13, 63, 12, 21, 34, 6, 70, 0)
s = 27: (0, 43, 70, 80, 12, 30, 11, 18, 24, 8, 132, 0)
s = 28: (0, 25, 73, 38, 16, 60, 7, 18, 22, 10, 47, 0)
s = 29: (0, 35, 53, 65, 21, 72, 9, 19, 40, 7, 130, 0)
s = 30: (0, 40, 45, 35, 23, 69, 8, 17, 31, 15, 77, 0)
s = 31: (0, 31, 38, 54, 16, 45, 11, 21, 24, 10, 112, 0)
s = 32: (0, 27, 46, 51, 20, 50, 8, 21, 21, 10, 96, 0)
s = 33: (0, 41, 52, 62, 27, 52, 9, 19, 25, 7, 73, 0)
s = 34: (0, 20, 51, 32, 20, 57, 10, 20, 23, 10, 116, 0)
s = 35: (0, 30, 79, 84, 13, 59, 14, 20, 28, 12, 125, 0)
s = 36: (0, 24, 103, 45, 24, 83, 16, 24, 41, 12, 96, 0)
s = 37: (0, 22, 65, 51, 14, 58, 13, 23, 22, 6, 90, 0)
s = 38: (0, 38, 46, 64, 36, 69, 7, 24, 21, 6, 62, 0)
s = 39: (0, 30, 64, 48, 17, 58, 7, 15, 39, 6, 69, 0)
s = 40: (0, 36, 89, 52, 20, 65, 7, 22, 26, 14, 70, 0)
s = 41: (0, 38, 46, 47, 14, 56, 11, 12, 32, 10, 79, 0)
s = 42: (0, 22, 59, 51, 13, 38, 13, 21, 34, 7, 73, 0)
s = 43: (0, 39, 103, 57, 23, 53, 7, 13, 28, 15, 92, 0)
s = 44: (0, 42, 58, 58, 19, 38, 12, 14, 30, 11, 71, 0)
s = 45: (0, 42, 79, 46, 19, 40, 11, 12, 33, 9, 141, 0)
s = 46: (0, 24, 67, 53, 18, 57, 7, 21, 22, 13, 85, 0)
s = 47: (0, 23, 58, 60, 12, 65, 12, 12, 32, 7, 107, 0)
s = 48: (0, 25, 128, 76, 18, 51, 14, 18, 36, 9, 104, 0)
s = 49: (0, 22, 67, 50, 16, 48, 14, 15, 36, 7, 83, 0)
s = 50: (0, 35, 107, 74, 26, 73, 14, 24, 29, 12, 75, 0)
s = 51: (0, 35, 71, 88, 27, 78, 15, 15, 39, 13, 65, 0)
s = 52: (0, 22, 119, 61, 15, 40, 7, 13, 22, 7, 71, 0)
s = 53: (0, 31, 120, 51, 14, 43, 12, 14, 17, 8, 68, 0)
s = 54: (0, 34, 80, 65, 12, 58, 9, 21, 17, 9, 48, 0)
s = 55: (0, 24, 69, 50, 15, 41, 13, 14, 29, 11, 104, 0)
s = 56: (0, 27, 49, 42, 22, 67, 14, 19, 29, 9, 65, 0)
s = 57: (0, 35, 66, 47, 22, 33, 17, 29, 22, 9, 66, 0)
s = 58: (0, 25, 80, 54, 16, 40, 14, 23, 37, 6, 92, 0)
s = 59: (0, 33, 55, 37, 25, 47, 12, 24, 33, 8, 62, 0)
s = 60: (0, 22, 107, 50, 14, 52, 9, 22, 28, 12, 110, 0)
s = 61: (0, 35, 48, 59, 19, 41, 8, 13, 40, 13, 66, 0)
s = 62: (0, 31, 46, 63, 14, 58, 8, 16, 29, 7, 79, 0)
s = 63: (0, 19, 58, 57, 14, 44, 15, 14, 25, 9, 118, 0)
s = 64: (0, 35, 63, 29, 18, 57, 10, 21, 32, 10, 67, 0)
s = 65: (0, 25, 53, 61, 15, 75, 10, 21, 32, 7, 146, 0)
s = 66: (0, 22, 70, 33, 12, 52, 12, 16, 16, 9, 63, 0)
s = 67: (0, 22, 90, 48, 28, 45, 8, 22, 25, 7, 65, 0)
s = 68: (0, 24, 63, 49, 28, 82, 8, 16, 30, 15, 103, 0)
s = 69: (0, 21, 80, 32, 22, 43, 12, 20, 37, 11, 86, 0)
s = 70: (0, 27, 91, 37, 12, 34, 8, 27, 27, 9, 87, 0)
s = 71: (0, 24, 56, 63, 24, 49, 8, 27, 19, 10, 47, 0)
s = 72: (0, 41, 105, 39, 22, 39, 7, 22, 23, 9, 62, 0)
s = 73: (0, 36, 59, 57, 27, 56, 10, 19, 39, 13, 108, 0)
s = 74: (0, 33, 43, 53, 16, 32, 9, 20, 21, 9, 82, 0)
s = 75: (0, 43, 57, 55, 19, 75, 12, 25, 25, 10, 129, 0)
s = 76: (0, 24, 63, 39, 20, 66, 18, 23, 21, 6, 97, 0)
s = 77: (0, 40, 42, 49, 27, 60, 11, 13, 23, 8, 112, 0)
s = 78: (0, 37, 63, 65, 26, 39, 13, 29, 38, 10, 75, 0)
s = 79: (0, 31, 104, 75, 14, 43, 10, 24, 18, 9, 125, 0)
s = 80: (0, 26, 53, 51, 21, 38, 13, 14, 40, 7, 68, 0)
s = 81: (0, 21, 46, 45, 27, 42, 8, 22, 25, 10, 60, 0)
s = 82: (0, 27, 63, 50, 20, 93, 12, 15, 27, 9, 53, 0)
s = 83: (0, 18, 85, 60, 21, 58, 8, 18, 39, 10, 64, 0)
s = 84: (0, 36, 40, 64, 24, 30, 8, 32, 28, 11, 95, 0)
s = 85: (0, 27, 48, 56, 22, 34, 10, 20, 36, 8, 51, 0)
s = 86: (0, 45, 57, 32, 11, 48, 16, 21, 36, 10, 78, 0)
s = 87: (0, 48, 49, 75, 23, 49, 6, 15, 44, 7, 109, 0)
s = 88: (0, 46, 94, 45, 19, 48, 13, 18, 28, 10, 87, 0)
s = 89: (0, 27, 78, 50, 17, 52, 13, 26, 43, 6, 112, 0)
s = 90: (0, 36, 52, 38, 14, 32, 8, 24, 25, 5, 44, 0)
s = 91: (0, 23, 79, 56, 18, 47, 6, 23, 25, 9, 96, 0)
s = 92: (0, 44, 51, 65, 11, 46, 14, 14, 42, 13, 57, 0)
s = 93: (0, 28, 51, 51, 27, 43, 9, 27, 25, 9, 91, 0)
s = 94: (0, 22, 58, 61, 14, 43, 11, 25, 29, 7, 57, 0)
s = 95: (0, 43, 82, 47, 28, 41, 8, 22, 44, 10, 50, 0)
s = 96: (0, 47, 43, 33, 11, 44, 8, 20, 24, 6, 99, 0)
s = 97: (0, 22, 108, 68, 13, 60, 7, 24, 35, 11, 81, 0)
s = 98: (0, 34, 78, 68, 17, 40, 11, 26, 26, 7, 84, 0)
s = 99: (0, 35, 55, 34, 18, 47, 12, 36, 24, 11, 83, 0)
s = 100: (0, 32, 60, 36, 19, 34, 13, 21, 46, 14, 76, 0)
s = 101: (0, 32, 56, 80, 15, 41, 14, 27, 34, 6, 71, 0)
s = 102: (0, 35, 110, 50, 22, 63, 18, 21, 23, 9, 87, 0)
s = 103: (0, 27, 63, 33, 16, 40, 13, 18, 28, 8, 100, 0)
s = 104: (0, 32, 52, 69, 15, 84, 8, 15, 22, 10, 77, 0)
s = 105: (0, 21, 90, 51, 16, 48, 12, 32, 21, 10, 47, 0)
s = 106: (0, 29, 67, 81, 11, 50, 10, 12, 38, 13, 56, 0)
s = 107: (0, 30, 69, 38, 16, 46, 12, 17, 29, 6, 56, 0)
s = 108: (0, 31, 47, 68, 18, 49, 7, 22, 34, 6, 81, 0)
s = 109: (0, 30, 57, 42, 13, 83, 11, 22, 32, 13, 90, 0)
s = 110: (0, 21, 79, 56, 22, 54, 10, 21, 29, 13, 55, 0)
s = 111: (0, 24, 61, 65, 22, 58, 9, 33, 23, 8, 114, 0)
s = 112: (0, 29, 71, 44, 16, 50, 10, 24, 17, 11, 103, 0)
s = 113: (0, 44, 59, 48, 18, 42, 7, 19, 33, 12, 121, 0)
s = 114: (0, 21, 71, 54, 19, 102, 14, 27, 35, 10, 95, 0)
s = 115: (0, 22, 42, 83, 19, 72, 8, 22, 21, 10, 81, 0)
s = 116: (0, 25, 46, 48, 11, 63, 8, 19, 29, 12, 64, 0)
s = 117: (0, 30, 43, 31, 17, 56, 12, 21, 25, 7, 52, 0)
s = 118: (0, 45, 75, 42, 20, 55, 15, 26, 32, 11, 92, 0)
s = 119: (0, 47, 66, 47, 20, 77, 13, 13, 22, 8, 65, 0)
s = 120: (0, 24, 79, 68, 18, 68, 20, 22, 43, 11, 73, 0)
s = 121: (0, 21, 68, 90, 14, 46, 15, 26, 41, 7, 74, 0)
s = 122: (0, 49, 46, 46, 17, 48, 11, 14, 42, 10, 91, 0)
s = 123: (0, 16, 80, 61, 14, 39, 13, 26, 22, 8, 58, 0)
s = 124: (0, 54, 94, 62, 15, 46, 7, 32, 24, 9, 69, 0)
s = 125: (0, 28, 114, 43, 16, 84, 11, 16, 27, 11, 74, 0)
s = 126: (0, 18, 60, 97, 18, 41, 9, 14, 21, 11, 80, 0)
s = 127: (0, 23, 47, 35, 29, 59, 15, 27, 35, 6, 69, 0)
s = 128: (0, 30, 51, 42, 24, 41, 8, 22, 30, 11, 83, 0)
s = 129: (0, 31, 83, 76, 16, 54, 14, 18, 23, 8, 66, 0)
s = 130: (0, 22, 47, 51, 16, 40, 9, 27, 32, 11, 57, 0)
s = 131: (0, 19, 132, 53, 10, 58, 12, 25, 28, 7, 85, 0)
s = 132: (0, 46, 74, 52, 22, 41, 18, 16, 22, 15, 115, 0)
s = 133: (0, 43, 67, 40, 16, 36, 7, 20, 25, 7, 85, 0)
s = 134: (0, 36, 78, 80, 20, 48, 10, 20, 33, 11, 55, 0)
s = 135: (0, 24, 47, 51, 16, 48, 7, 16, 27, 6, 74, 0)
s = 136: (0, 29, 88, 57, 18, 56, 10, 13, 30, 13, 94, 0)
s = 137: (0, 29, 49, 32, 23, 29, 7, 24, 45, 7, 99, 0)
s = 138: (0, 33, 61, 54, 23, 54, 16, 26, 23, 11, 49, 0)
s = 139: (0, 42, 57, 42, 16, 49, 10, 12, 39, 12, 106, 0)
s = 140: (0, 23, 59, 47, 21, 52, 6, 31, 16, 12, 96, 0)
s = 141: (0, 44, 91, 36, 20, 31, 8, 18, 33, 9, 74, 0)
s = 142: (0, 24, 42, 38, 14, 56, 8, 18, 28, 7, 105, 0)
s = 143: (0, 39, 93, 80, 13, 51, 11, 20, 30, 10, 97, 0)
s = 144: (0, 31, 44, 59, 26, 41, 11, 21, 35, 6, 51, 0)
s = 145: (0, 38, 107, 73, 17, 61, 9, 22, 31, 12, 72, 0)
s = 146: (0, 38, 65, 27, 15, 50, 9, 15, 22, 10, 124, 0)
s = 147: (0, 37, 52, 50, 18, 57, 7, 21, 42, 9, 45, 0)
s = 148: (0, 32, 70, 71, 23, 52, 8, 23, 35, 9, 79, 0)
s = 149: (0, 58, 53, 64, 11, 50, 9, 27, 48, 13, 93, 0)
s = 150: (0, 25, 48, 62, 23, 45, 6, 14, 28, 6, 97, 0)
s = 151: (0, 45, 40, 42, 14, 68, 10, 35, 19, 8, 80, 0)
s = 152: (0, 36, 93, 45, 15, 61, 7, 16, 32, 6, 80, 0)
s = 153: (0, 37, 48, 56, 19, 57, 13, 16, 28, 8, 66, 0)
s = 154: (0, 24, 47, 65, 18, 61, 7, 15, 21, 10, 89, 0)
s = 155: (0, 33, 64, 45, 23, 44, 8, 30, 22, 14, 65, 0)
s = 156: (0, 19, 41, 44, 21, 43, 6, 12, 23, 10, 114, 0)
s = 157: (0, 21, 82, 43, 25, 45, 14, 19, 19, 8, 43, 0)
s = 158: (0, 34, 68, 49, 24, 35, 9, 20, 25, 11, 102, 0)
s = 159: (0, 22, 96, 42, 21, 34, 10, 22, 47, 10, 59, 0)
s = 160: (0, 32, 78, 57, 22, 80, 13, 19, 29, 14, 50, 0)
s = 161: (0, 47, 47, 58, 12, 72, 12, 15, 23, 9, 59, 0)
s = 162: (0, 27, 43, 48, 27, 48, 8, 17, 28, 7, 67, 0)
s = 163: (0, 26, 98, 30, 26, 49, 19, 17, 48, 10, 68, 0)
s = 164: (0, 22, 39, 66, 19, 43, 9, 27, 29, 7, 82, 0)
s = 165: (0, 27, 74, 65, 17, 56, 11, 23, 32, 9, 118, 0)
s = 166: (0, 33, 50, 44, 19, 41, 13, 13, 24, 11, 114, 0)
s = 167: (0, 55, 84, 45, 30, 33, 16, 30, 47, 8, 73, 0)
s = 168: (0, 21, 72, 49, 18, 72, 7, 21, 29, 9, 85, 0)
s = 169: (0, 47, 91, 47, 15, 58, 14, 18, 21, 10, 62, 0)
s = 170: (0, 35, 49, 54, 19, 55, 8, 27, 19, 13, 85, 0)
s = 171: (0, 31, 81, 35, 14, 52, 6, 19, 36, 9, 63, 0)
s = 172: (0, 26, 51, 52, 16, 37, 11, 29, 26, 10, 114, 0)
s = 173: (0, 38, 85, 76, 16, 77, 10, 21, 26, 7, 77, 0)
s = 174: (0, 43, 44, 67, 16, 57, 16, 17, 24, 10, 115, 0)
s = 175: (0, 35, 80, 40, 25, 37, 9, 25, 39, 13, 123, 0)
s = 176: (0, 27, 59, 71, 19, 44, 11, 16, 32, 8, 98, 0)
s = 177: (0, 35, 62, 46, 16, 38, 8, 18, 22, 9, 86, 0)
s = 178: (0, 39, 71, 42, 15, 40, 6, 12, 23, 8, 69, 0)
s = 179: (0, 31, 59, 32, 16, 56, 9, 15, 38, 12, 55, 0)
s = 180: (0, 33, 54, 47, 20, 30, 11, 22, 20, 10, 112, 0)
s = 181: (0, 39, 76, 63, 14, 77, 14, 20, 21, 9, 75, 0)
s = 182: (0, 27, 82, 40, 18, 44, 16, 12, 31, 7, 78, 0)
s = 183: (0, 29, 63, 40, 25, 85, 12, 25, 35, 13, 65, 0)
s = 184: (0, 38, 87, 44, 17, 62, 7, 20, 27, 14, 79, 0)
s = 185: (0, 28, 81, 37, 12, 32, 17, 21, 30, 5, 64, 0)
s = 186: (0, 38, 59, 38, 17, 67, 8, 26, 21, 15, 122, 0)
s = 187: (0, 26, 68, 57, 26, 76, 10, 16, 27, 8, 115, 0)
s = 188: (0, 34, 86, 62, 17, 51, 8, 30, 24, 7, 78, 0)
s = 189: (0, 23, 71, 56, 14, 60, 17, 18, 31, 14, 71, 0)
s = 190: (0, 20, 85, 67, 20, 47, 11, 17, 43, 13, 87, 0)
s = 191: (0, 35, 62, 46, 19, 57, 10, 17, 35, 14, 58, 0)
s = 192: (0, 35, 67, 51, 30, 36, 10, 14, 22, 9, 71, 0)
s = 193: (0, 38, 53, 31, 29, 56, 8, 20, 41, 8, 72, 0)
s = 194: (0, 21, 71, 35, 15, 42, 9, 15, 38, 9, 78, 0)
s = 195: (0, 21, 80, 31, 21, 58, 15, 28, 45, 8, 107, 0)
s = 196: (0, 46, 151, 45, 11, 38, 10, 17, 25, 9, 96, 0)
s = 197: (0, 28, 70, 41, 16, 48, 10, 26, 25, 12, 87, 0)
s = 198: (0, 31, 49, 39, 19, 36, 10, 24, 31, 10, 82, 0)
s = 199: (0, 19, 61, 41, 11, 50, 13, 36, 31, 11, 100, 0)
s = 200: (0, 26, 83, 50, 22, 43, 19, 14, 32, 13, 95, 0)
------------------------------------------------------------------------
RESOURCE k = 2
s = 1: (0, 45, 55, 80, 20, 91, 16, 41, 13, 24, 68, 0)
s = 2: (0, 64, 82, 57, 20, 48, 18, 33, 28, 15, 129, 0)
s = 3: (0, 57, 83, 56, 16, 73, 15, 43, 25, 19, 60, 0)
s = 4: (0, 58, 54, 42, 25, 94, 15, 19, 13, 26, 103, 0)
s = 5: (0, 66, 54, 70, 14, 94, 20, 23, 23, 24, 158, 0)
s = 6: (0, 52, 74, 35, 12, 58, 9, 25, 16, 12, 134, 0)
s = 7: (0, 44, 104, 39, 17, 85, 10, 19, 23, 16, 96, 0)
s = 8: (0, 67, 67, 56, 10, 139, 10, 39, 32, 16, 76, 0)
s = 9: (0, 55, 60, 56, 13, 103, 12, 49, 27, 18, 144, 0)
s = 10: (0, 35, 95, 67, 12, 62, 16, 32, 13, 23, 89, 0)
s = 11: (0, 55, 93, 56, 15, 43, 9, 37, 23, 19, 79, 0)
s = 12: (0, 45, 83, 51, 18, 86, 20, 36, 23, 13, 111, 0)
s = 13: (0, 55, 126, 71, 12, 55, 22, 32, 12, 16, 139, 0)
s = 14: (0, 47, 53, 72, 14, 66, 11, 21, 23, 18, 81, 0)
s = 15: (0, 52, 61, 78, 16, 76, 16, 22, 22, 22, 78, 0)
s = 16: (0, 44, 45, 57, 12, 100, 17, 43, 29, 21, 143, 0)
s = 17: (0, 40, 134, 74, 11, 75, 13, 36, 21, 26, 99, 0)
s = 18: (0, 56, 162, 34, 18, 62, 16, 34, 23, 20, 104, 0)
s = 19: (0, 75, 77, 46, 21, 94, 20, 23, 13, 18, 108, 0)
s = 20: (0, 45, 72, 34, 11, 96, 15, 40, 18, 12, 100, 0)
s = 21: (0, 37, 97, 40, 12, 62, 9, 21, 20, 24, 126, 0)
s = 22: (0, 55, 56, 46, 10, 105, 16, 29, 12, 17, 76, 0)
s = 23: (0, 44, 83, 69, 12, 48, 9, 42, 16, 23, 84, 0)
s = 24: (0, 53, 127, 58, 15, 67, 18, 31, 32, 15, 100, 0)
s = 25: (0, 78, 81, 51, 10, 60, 15, 34, 40, 21, 63, 0)
s = 26: (0, 26, 91, 60, 10, 90, 17, 33, 23, 12, 91, 0)
s = 27: (0, 73, 82, 87, 9, 43, 15, 28, 16, 15, 172, 0)
s = 28: (0, 42, 85, 41, 13, 87, 10, 28, 15, 20, 61, 0)
s = 29: (0, 59, 62, 70, 16, 103, 12, 29, 27, 13, 170, 0)
s = 30: (0, 67, 53, 38, 18, 99, 11, 27, 21, 29, 101, 0)
s = 31: (0, 53, 44, 58, 13, 64, 15, 34, 16, 19, 147, 0)
s = 32: (0, 46, 54, 55, 15, 71, 11, 34, 14, 19, 125, 0)
s = 33: (0, 69, 61, 67, 21, 75, 12, 29, 17, 14, 95, 0)
s = 34: (0, 34, 59, 34, 15, 82, 13, 32, 15, 19, 152, 0)
s = 35: (0, 50, 92, 90, 10, 84, 20, 31, 19, 23, 163, 0)
s = 36: (0, 41, 121, 48, 19, 120, 22, 39, 27, 24, 126, 0)
s = 37: (0, 38, 76, 55, 11, 83, 17, 37, 15, 12, 118, 0)
s = 38: (0, 65, 53, 69, 28, 99, 10, 38, 14, 11, 81, 0)
s = 39: (0, 51, 74, 52, 13, 84, 9, 23, 26, 12, 91, 0)
s = 40: (0, 61, 103, 56, 16, 93, 9, 36, 17, 27, 91, 0)
s = 41: (0, 65, 54, 51, 11, 81, 15, 19, 22, 20, 103, 0)
s = 42: (0, 37, 69, 55, 10, 54, 18, 34, 23, 13, 95, 0)
s = 43: (0, 66, 120, 61, 18, 76, 9, 21, 19, 30, 120, 0)
s = 44: (0, 71, 67, 62, 15, 54, 16, 22, 20, 22, 93, 0)
s = 45: (0, 71, 92, 50, 15, 58, 15, 19, 22, 17, 185, 0)
s = 46: (0, 41, 78, 58, 14, 83, 10, 34, 15, 26, 112, 0)
s = 47: (0, 39, 67, 65, 9, 93, 17, 19, 22, 13, 139, 0)
s = 48: (0, 42, 149, 82, 14, 74, 20, 28, 24, 18, 136, 0)
s = 49: (0, 37, 78, 54, 12, 69, 20, 23, 24, 14, 109, 0)
s = 50: (0, 59, 125, 80, 20, 105, 19, 38, 20, 24, 97, 0)
s = 51: (0, 59, 83, 94, 21, 112, 21, 23, 26, 26, 84, 0)
s = 52: (0, 37, 138, 65, 12, 58, 10, 21, 15, 13, 92, 0)
s = 53: (0, 53, 139, 55, 11, 61, 17, 22, 11, 16, 89, 0)
s = 54: (0, 57, 93, 70, 10, 83, 12, 34, 12, 17, 63, 0)
s = 55: (0, 40, 80, 54, 12, 59, 18, 21, 19, 21, 135, 0)
s = 56: (0, 45, 57, 46, 17, 96, 20, 30, 19, 18, 85, 0)
s = 57: (0, 59, 77, 51, 17, 47, 23, 46, 15, 17, 86, 0)
s = 58: (0, 43, 94, 58, 13, 58, 20, 36, 25, 12, 120, 0)
s = 59: (0, 55, 64, 39, 20, 67, 17, 38, 22, 16, 81, 0)
s = 60: (0, 37, 125, 53, 11, 74, 13, 35, 19, 23, 144, 0)
s = 61: (0, 59, 56, 63, 15, 58, 11, 20, 27, 26, 86, 0)
s = 62: (0, 52, 53, 68, 11, 83, 10, 25, 20, 14, 103, 0)
s = 63: (0, 32, 67, 61, 11, 64, 20, 22, 17, 17, 155, 0)
s = 64: (0, 58, 74, 31, 14, 82, 13, 33, 22, 19, 87, 0)
s = 65: (0, 43, 62, 65, 12, 108, 13, 34, 21, 13, 191, 0)
s = 66: (0, 37, 82, 36, 10, 75, 17, 26, 11, 18, 82, 0)
s = 67: (0, 37, 105, 51, 22, 64, 11, 35, 17, 13, 85, 0)
s = 68: (0, 41, 73, 53, 22, 118, 11, 25, 20, 29, 134, 0)
s = 69: (0, 36, 93, 35, 17, 62, 17, 32, 25, 21, 112, 0)
s = 70: (0, 46, 107, 40, 9, 48, 11, 42, 18, 18, 113, 0)
s = 71: (0, 40, 66, 68, 19, 70, 10, 43, 13, 20, 62, 0)
s = 72: (0, 69, 123, 42, 17, 57, 10, 35, 15, 17, 82, 0)
s = 73: (0, 60, 69, 62, 21, 80, 14, 31, 26, 26, 141, 0)
s = 74: (0, 55, 50, 57, 13, 46, 12, 31, 14, 17, 107, 0)
s = 75: (0, 72, 66, 60, 15, 108, 16, 40, 17, 19, 168, 0)
s = 76: (0, 41, 73, 42, 15, 95, 25, 37, 14, 11, 126, 0)
s = 77: (0, 67, 49, 52, 21, 86, 15, 20, 15, 15, 146, 0)
s = 78: (0, 62, 74, 70, 20, 56, 18, 46, 25, 19, 98, 0)
s = 79: (0, 53, 121, 81, 11, 63, 13, 39, 12, 17, 163, 0)
s = 80: (0, 44, 62, 55, 16, 55, 18, 22, 27, 14, 89, 0)
s = 81: (0, 36, 53, 48, 21, 60, 11, 34, 17, 20, 78, 0)
s = 82: (0, 45, 73, 54, 16, 134, 17, 23, 18, 18, 69, 0)
s = 83: (0, 30, 99, 65, 17, 84, 11, 29, 26, 20, 83, 0)
s = 84: (0, 61, 47, 69, 18, 43, 11, 51, 19, 21, 123, 0)
s = 85: (0, 45, 55, 60, 17, 49, 13, 32, 24, 15, 67, 0)
s = 86: (0, 75, 66, 34, 9, 70, 23, 33, 24, 19, 102, 0)
s = 87: (0, 82, 57, 81, 18, 70, 8, 24, 30, 14, 142, 0)
s = 88: (0, 77, 110, 49, 15, 69, 18, 28, 19, 19, 113, 0)
s = 89: (0, 45, 90, 54, 13, 74, 18, 41, 29, 12, 146, 0)
s = 90: (0, 60, 61, 40, 11, 46, 11, 37, 17, 10, 57, 0)
s = 91: (0, 39, 92, 60, 14, 68, 8, 36, 17, 18, 125, 0)
s = 92: (0, 74, 60, 70, 9, 66, 19, 23, 28, 26, 74, 0)
s = 93: (0, 47, 59, 55, 21, 62, 13, 44, 17, 17, 119, 0)
s = 94: (0, 37, 67, 65, 11, 62, 15, 39, 20, 13, 75, 0)
s = 95: (0, 73, 95, 50, 22, 59, 11, 35, 30, 19, 66, 0)
s = 96: (0, 80, 50, 36, 9, 63, 11, 32, 16, 12, 130, 0)
s = 97: (0, 37, 126, 73, 11, 86, 10, 38, 24, 22, 105, 0)
s = 98: (0, 57, 91, 73, 14, 58, 15, 41, 18, 14, 110, 0)
s = 99: (0, 58, 64, 37, 14, 67, 17, 57, 16, 21, 109, 0)
s = 100: (0, 54, 69, 38, 15, 49, 17, 33, 31, 27, 100, 0)
s = 101: (0, 54, 65, 86, 12, 59, 19, 42, 23, 11, 93, 0)
s = 102: (0, 60, 128, 54, 18, 91, 25, 33, 15, 18, 114, 0)
s = 103: (0, 45, 73, 35, 12, 57, 18, 29, 19, 16, 130, 0)
s = 104: (0, 54, 61, 74, 12, 121, 11, 23, 15, 20, 101, 0)
s = 105: (0, 35, 105, 55, 12, 70, 16, 50, 14, 20, 62, 0)
s = 106: (0, 49, 78, 87, 9, 73, 14, 20, 25, 25, 73, 0)
s = 107: (0, 51, 80, 41, 13, 66, 16, 28, 19, 12, 73, 0)
s = 108: (0, 52, 55, 73, 14, 70, 9, 35, 23, 12, 106, 0)
s = 109: (0, 51, 66, 45, 10, 120, 15, 35, 22, 25, 117, 0)
s = 110: (0, 36, 92, 60, 17, 77, 14, 33, 19, 25, 72, 0)
s = 111: (0, 41, 71, 70, 17, 83, 12, 53, 16, 15, 148, 0)
s = 112: (0, 49, 83, 48, 12, 72, 14, 38, 12, 22, 134, 0)
s = 113: (0, 75, 69, 51, 14, 61, 9, 30, 22, 24, 158, 0)
s = 114: (0, 35, 83, 58, 15, 147, 19, 42, 24, 20, 124, 0)
s = 115: (0, 36, 49, 90, 15, 104, 11, 35, 14, 20, 105, 0)
s = 116: (0, 42, 54, 51, 9, 90, 11, 30, 20, 24, 84, 0)
s = 117: (0, 50, 50, 33, 13, 80, 16, 33, 17, 13, 68, 0)
s = 118: (0, 77, 87, 45, 15, 79, 20, 42, 22, 21, 120, 0)
s = 119: (0, 79, 76, 51, 16, 111, 18, 20, 15, 15, 84, 0)
s = 120: (0, 41, 93, 73, 14, 98, 28, 35, 29, 22, 96, 0)
s = 121: (0, 36, 79, 97, 11, 67, 21, 42, 27, 13, 96, 0)
s = 122: (0, 83, 54, 49, 13, 68, 15, 22, 28, 19, 119, 0)
s = 123: (0, 27, 94, 66, 11, 57, 18, 41, 15, 15, 75, 0)
s = 124: (0, 91, 109, 67, 12, 66, 9, 51, 16, 18, 90, 0)
s = 125: (0, 47, 133, 46, 13, 121, 16, 26, 18, 21, 96, 0)
s = 126: (0, 30, 70, 104, 14, 60, 13, 22, 14, 22, 105, 0)
s = 127: (0, 39, 54, 38, 23, 85, 21, 43, 24, 11, 90, 0)
s = 128: (0, 51, 59, 45, 19, 59, 11, 34, 20, 21, 108, 0)
s = 129: (0, 52, 96, 82, 13, 77, 20, 28, 15, 16, 86, 0)
s = 130: (0, 37, 55, 55, 12, 58, 13, 44, 21, 21, 74, 0)
s = 131: (0, 32, 154, 57, 8, 84, 16, 40, 19, 13, 111, 0)
s = 132: (0, 78, 86, 56, 17, 60, 26, 26, 15, 29, 151, 0)
s = 133: (0, 73, 78, 43, 13, 52, 10, 32, 17, 14, 111, 0)
s = 134: (0, 61, 91, 87, 16, 69, 13, 31, 22, 21, 72, 0)
s = 135: (0, 40, 55, 55, 13, 70, 10, 25, 18, 12, 96, 0)
s = 136: (0, 48, 102, 61, 14, 81, 14, 21, 20, 25, 122, 0)
s = 137: (0, 49, 57, 35, 18, 42, 10, 38, 30, 13, 129, 0)
s = 138: (0, 56, 71, 58, 18, 78, 22, 41, 15, 21, 63, 0)
s = 139: (0, 71, 67, 45, 12, 71, 14, 19, 26, 24, 138, 0)
s = 140: (0, 40, 69, 51, 17, 76, 8, 49, 11, 23, 126, 0)
s = 141: (0, 75, 106, 39, 16, 44, 11, 29, 22, 17, 97, 0)
s = 142: (0, 40, 49, 41, 11, 80, 11, 29, 19, 14, 137, 0)
s = 143: (0, 65, 108, 87, 10, 73, 15, 31, 20, 19, 126, 0)
s = 144: (0, 53, 51, 64, 21, 59, 15, 34, 23, 12, 67, 0)
s = 145: (0, 65, 125, 79, 13, 87, 12, 36, 21, 24, 94, 0)
s = 146: (0, 65, 76, 29, 12, 72, 12, 23, 15, 20, 161, 0)
s = 147: (0, 62, 60, 54, 14, 82, 9, 33, 28, 17, 58, 0)
s = 148: (0, 53, 81, 76, 18, 75, 11, 37, 23, 18, 104, 0)
s = 149: (0, 98, 62, 69, 9, 72, 12, 43, 32, 26, 121, 0)
s = 150: (0, 42, 56, 67, 18, 65, 9, 22, 19, 11, 127, 0)
s = 151: (0, 76, 46, 45, 11, 98, 13, 55, 13, 16, 105, 0)
s = 152: (0, 61, 109, 48, 12, 88, 10, 25, 22, 12, 105, 0)
s = 153: (0, 63, 56, 61, 15, 82, 19, 25, 19, 16, 86, 0)
s = 154: (0, 41, 55, 70, 14, 89, 10, 24, 14, 20, 116, 0)
s = 155: (0, 55, 75, 48, 18, 64, 11, 48, 15, 27, 85, 0)
s = 156: (0, 32, 48, 47, 17, 62, 9, 20, 16, 19, 149, 0)
s = 157: (0, 35, 96, 46, 19, 65, 19, 30, 13, 15, 57, 0)
s = 158: (0, 58, 79, 52, 19, 51, 12, 32, 17, 22, 133, 0)
s = 159: (0, 37, 111, 45, 17, 48, 13, 34, 31, 19, 77, 0)
s = 160: (0, 54, 91, 61, 17, 116, 18, 30, 20, 28, 65, 0)
s = 161: (0, 80, 54, 62, 10, 104, 16, 24, 15, 17, 76, 0)
s = 162: (0, 46, 50, 51, 21, 70, 11, 28, 19, 13, 88, 0)
s = 163: (0, 44, 115, 33, 20, 70, 27, 27, 32, 20, 88, 0)
s = 164: (0, 37, 45, 71, 15, 62, 12, 42, 19, 13, 107, 0)
s = 165: (0, 45, 86, 70, 13, 81, 15, 36, 22, 17, 155, 0)
s = 166: (0, 56, 58, 48, 15, 60, 19, 21, 16, 21, 149, 0)
s = 167: (0, 94, 98, 48, 23, 48, 22, 48, 32, 16, 95, 0)
s = 168: (0, 35, 84, 53, 14, 104, 10, 34, 19, 17, 111, 0)
s = 169: (0, 80, 106, 50, 12, 84, 19, 29, 14, 20, 80, 0)
s = 170: (0, 59, 58, 58, 15, 79, 12, 43, 13, 25, 111, 0)
s = 171: (0, 52, 94, 37, 11, 74, 9, 30, 24, 18, 82, 0)
s = 172: (0, 43, 60, 56, 13, 53, 15, 46, 18, 20, 149, 0)
s = 173: (0, 63, 99, 81, 13, 111, 14, 34, 17, 13, 101, 0)
s = 174: (0, 72, 51, 72, 13, 82, 22, 28, 16, 20, 150, 0)
s = 175: (0, 59, 94, 43, 20, 53, 13, 40, 26, 26, 160, 0)
s = 176: (0, 45, 69, 76, 15, 63, 15, 25, 21, 16, 128, 0)
s = 177: (0, 59, 72, 50, 13, 55, 11, 29, 15, 18, 112, 0)
s = 178: (0, 66, 82, 45, 12, 57, 8, 19, 15, 16, 90, 0)
s = 179: (0, 52, 69, 35, 12, 81, 13, 24, 25, 24, 72, 0)
s = 180: (0, 55, 63, 51, 15, 44, 16, 35, 14, 19, 146, 0)
s = 181: (0, 66, 88, 67, 11, 110, 19, 31, 14, 18, 97, 0)
s = 182: (0, 46, 95, 43, 14, 64, 22, 18, 21, 14, 102, 0)
s = 183: (0, 49, 74, 43, 20, 123, 16, 40, 24, 26, 85, 0)
s = 184: (0, 65, 102, 48, 13, 90, 10, 31, 18, 27, 103, 0)
s = 185: (0, 47, 95, 40, 9, 46, 24, 34, 20, 10, 84, 0)
s = 186: (0, 64, 69, 41, 14, 97, 12, 42, 14, 29, 159, 0)
s = 187: (0, 43, 79, 61, 20, 109, 14, 26, 18, 16, 150, 0)
s = 188: (0, 58, 100, 66, 13, 74, 12, 47, 16, 13, 102, 0)
s = 189: (0, 39, 82, 60, 11, 86, 24, 28, 21, 27, 93, 0)
s = 190: (0, 34, 99, 72, 15, 67, 15, 27, 29, 26, 114, 0)
s = 191: (0, 59, 73, 49, 15, 82, 14, 28, 23, 28, 76, 0)
s = 192: (0, 59, 78, 55, 23, 52, 14, 22, 15, 17, 93, 0)
s = 193: (0, 65, 62, 33, 23, 80, 12, 32, 28, 15, 94, 0)
s = 194: (0, 36, 83, 38, 12, 60, 12, 24, 25, 17, 102, 0)
s = 195: (0, 35, 93, 34, 16, 83, 20, 44, 30, 15, 139, 0)
s = 196: (0, 78, 177, 48, 9, 55, 14, 27, 17, 18, 125, 0)
s = 197: (0, 48, 82, 44, 13, 69, 14, 41, 17, 24, 113, 0)
s = 198: (0, 52, 57, 42, 15, 51, 14, 39, 21, 20, 106, 0)
s = 199: (0, 32, 71, 44, 9, 72, 18, 57, 21, 21, 130, 0)
s = 200: (0, 44, 96, 54, 17, 61, 26, 23, 22, 26, 124, 0)
************************************************************************
ES/LS-VALUES:
jobnr.   ES(i)    LS(i)
------------------------------------------------------------------------
  0        0        0
  1        0       44
  2        0       47
  3        0       52
  4        7       62
  5        5       50
  6       16       62
  7       12       60
  8       15       72
  9       12       74
 10       18       64
 11       29       76
************************************************************************
BIG-M-VALUES:
M1 = 45, M2 = 337
************************************************************************
